This is Ipopt version 3.14.14, running with linear solver MUMPS 5.6.2.

Number of nonzeros in equality constraint Jacobian...:        0
Number of nonzeros in inequality constraint Jacobian.:      144
Number of nonzeros in Lagrangian Hessian.............:        0

Total number of variables............................:       12
                     variables with only lower bounds:        0
                variables with lower and upper bounds:       12
                     variables with only upper bounds:        0
Total number of equality constraints.................:        0
Total number of inequality constraints...............:       12
        inequality constraints with only lower bounds:        0
   inequality constraints with lower and upper bounds:        0
        inequality constraints with only upper bounds:       12

iter    objective    inf_pr   inf_du lg(mu)  ||d||  lg(rg) alpha_du alpha_pr  ls
   0  3.1424652e-02 0.00e+00 1.33e-01   0.0 0.00e+00    -  0.00e+00 0.00e+00   0
   1  1.6239274e-02 0.00e+00 4.34e-02  -1.2 6.77e-02    -  9.88e-01 9.90e-01h  1
   2  1.0266122e-02 0.00e+00 4.15e-01  -2.4 2.10e-01    -  1.00e+00 9.90e-01h  1
   3  8.7198741e-03 0.00e+00 1.46e-02  -3.3 3.35e-02    -  1.00e+00 9.99e-01h  1
   4  5.2633833e-03 0.00e+00 1.64e-02  -4.0 6.15e-01    -  9.99e-01 2.50e-01f  3
   5  5.2243297e-03 0.00e+00 1.65e-02  -5.1 6.19e-02    -  1.00e+00 1.00e+00f  1
   6  4.6016281e-03 0.00e+00 1.56e-02  -6.9 3.13e-02    -  1.00e+00 1.00e+00f  1
   7  3.1162461e-03 0.00e+00 2.01e-02  -7.6 1.08e+00    -  1.00e+00 1.25e-01f  4
   8  2.9647194e-03 0.00e+00 1.14e-02  -8.9 1.09e-01    -  1.00e+00 1.25e-01f  4
   9  2.9289832e-03 0.00e+00 7.31e-03 -10.0 3.63e-02    -  1.00e+00 1.00e+00f  1
iter    objective    inf_pr   inf_du lg(mu)  ||d||  lg(rg) alpha_du alpha_pr  ls
  10  2.7787405e-03 0.00e+00 2.63e-03 -11.0 3.14e-02    -  1.00e+00 1.00e+00f  1
  11  2.5159718e-03 0.00e+00 2.25e-03 -11.0 6.02e-02    -  1.00e+00 1.00e+00f  1
  12  2.1274274e-03 0.00e+00 2.83e-03 -11.0 6.88e-02    -  1.00e+00 1.00e+00f  1
  13  1.8715195e-03 0.00e+00 9.95e-03  -9.0 3.72e+03    -  7.85e-04 2.66e-05f  6
  14  1.5710577e-03 0.00e+00 7.73e-03 -11.0 1.23e-01    -  1.00e+00 1.00e+00f  1
  15  1.3608037e-03 0.00e+00 8.59e-03 -11.0 3.44e-01    -  1.00e+00 5.00e-01f  2
  16  1.3010161e-03 0.00e+00 7.81e-03 -11.0 8.29e-02    -  1.00e+00 1.00e+00f  1
  17  1.2863117e-03 0.00e+00 2.28e-03 -11.0 5.73e-02    -  1.00e+00 1.00e+00f  1
  18  1.1764919e-03 0.00e+00 1.62e-03 -11.0 5.81e-02    -  1.00e+00 1.00e+00f  1
  19  1.0844485e-03 0.00e+00 1.29e-03 -11.0 3.91e-01    -  1.00e+00 5.00e-01f  2
iter    objective    inf_pr   inf_du lg(mu)  ||d||  lg(rg) alpha_du alpha_pr  ls
  20  1.0666488e-03 0.00e+00 8.58e-03 -11.0 1.27e+00    -  1.00e+00 1.25e-01f  4
  21  9.4986524e-04 0.00e+00 1.40e-03 -10.5 8.36e+00    -  1.00e+00 1.20e-02f  6
  22  9.1283005e-04 0.00e+00 6.15e-03 -11.0 1.86e-01    -  1.00e+00 2.50e-01f  3
  23  7.7739381e-04 0.00e+00 4.99e-03 -11.0 1.61e-01    -  1.00e+00 5.00e-01f  2
  24  7.0344981e-04 0.00e+00 2.58e-03 -11.0 4.19e-01    -  1.00e+00 2.50e-01f  3
  25  6.1151591e-04 0.00e+00 6.82e-03 -11.0 7.15e-01    -  1.00e+00 5.00e-01f  2
  26  6.0828682e-04 0.00e+00 4.46e-03 -11.0 1.61e+00    -  1.00e+00 1.34e-02f  7
  27  5.6423321e-04 0.00e+00 4.95e-03 -10.6 5.58e-01    -  1.00e+00 1.25e-01f  4
  28  5.3985278e-04 0.00e+00 1.24e-03 -11.0 1.02e+00    -  1.00e+00 6.25e-02f  5
  29  5.2794238e-04 0.00e+00 1.35e-03 -11.0 1.58e+00    -  1.00e+00 4.99e-02f  5
iter    objective    inf_pr   inf_du lg(mu)  ||d||  lg(rg) alpha_du alpha_pr  ls
  30  4.4851315e-04 0.00e+00 3.78e-03 -11.0 1.86e-01    -  1.00e+00 1.00e+00f  1

Number of Iterations....: 30

                                   (scaled)                 (unscaled)
Objective...............:   4.4851315075869832e-04    4.4851315075869832e-04
Dual infeasibility......:   3.7837552843189436e-03    3.7837552843189436e-03
Constraint violation....:   0.0000000000000000e+00    0.0000000000000000e+00
Variable bound violation:   0.0000000000000000e+00    0.0000000000000000e+00
Complementarity.........:   1.0206251377320635e-11    1.0206251377320635e-11
Overall NLP error.......:   3.7837552843189436e-03    3.7837552843189436e-03


Number of objective function evaluations             = 137
Number of objective gradient evaluations             = 31
Number of equality constraint evaluations            = 0
Number of inequality constraint evaluations          = 137
Number of equality constraint Jacobian evaluations   = 0
Number of inequality constraint Jacobian evaluations = 31
Number of Lagrangian Hessian evaluations             = 0
Total seconds in IPOPT                               = 16.762

EXIT: Maximum Number of Iterations Exceeded.
